Problem:    
Rows:       14
Columns:    4
Non-zeros:  56
Status:     OPTIMAL
Objective:  obj = 0 (MAXimum)

   No.   Row name   St   Activity     Lower bound   Upper bound    Marginal
------ ------------ -- ------------- ------------- ------------- -------------
     1 r.4          NU             0                           0           0.7 
     2 r.5          B              0                           0 
     3 r.6          B              0                           0 
     4 r.7          B              0                           0 
     5 r.8          B              0                           0 
     6 r.9          NU             0                           0           0.3 
     7 r.10         B              0                           0 
     8 r.11         B              0                           0 
     9 r.12         B              0                           0 
    10 r.13         B              0                           0 
    11 r.14         B              0                           0 
    12 r.15         B              0                           0 
    13 r.16         B              0                           0 
    14 r.17         B              0                           0 

   No. Column name  St   Activity     Lower bound   Upper bound    Marginal
------ ------------ -- ------------- ------------- ------------- -------------
     1 t            B              0             0               
     2 a            NL             0             0                        -0.2 
     3 b            B              0             0               
     4 c            NL             0             0                        -0.4 

Karush-Kuhn-Tucker optimality conditions:

KKT.PE: max.abs.err = 0.00e+000 on row 0
        max.rel.err = 0.00e+000 on row 0
        High quality

KKT.PB: max.abs.err = 0.00e+000 on row 0
        max.rel.err = 0.00e+000 on row 0
        High quality

KKT.DE: max.abs.err = 0.00e+000 on column 0
        max.rel.err = 0.00e+000 on column 0
        High quality

KKT.DB: max.abs.err = 0.00e+000 on row 0
        max.rel.err = 0.00e+000 on row 0
        High quality

End of output
